133
10000
4313
1362
4
4432
3304
1630
1620
1742
2157
2851
3980
4367
4071
384
996
4061
4025
1328
1464
2660
609
920
1398
2476
11
4553
2602
4791
1656
2922
4085
1748
2837
1700
4980
830
2090
567
1280
2114
786
2112
2202
1361
786
523
1039
2032
2422
1252
3273
4844
4915
2285
4783
3756
3327
2931
3782
2191
2717
3157
405
2855
41
3690
2028
3125
3388
564
1506
843
1810
59
146
2673
621
3914
1478
1590
1363
3345
1338
1576
112
3169
1748
4901
1024
3094
1092
3720
3313
2171
432
980
538
4913
76
1485
1252
4079
780
2699
1544
151
1548
3288
916
2156
1844
4544
4415
3495
2811
2228
927
3811
922
107
565
4159
1489
2340
4520
4953
2770
312
4770
2502
1950
827
2804
